(set-info :smt-lib-version 2.6)
(set-logic UF)
(set-info :source |
Generated by: Andrew Reynolds
Generated on: 2017-04-28
Generator: Sledgehammer, converted to v2.6 by CVC4
Application: Verfication goals in Isabelle
Target solver: CVC4, Z3
Publications: "A Decision Procedure for (Co)Datatypes" by Andrew Reynolds and Jasmin Blanchette, CADE 2015.
|)
(set-info :license "https://creativecommons.org/licenses/by/4.0/")
(set-info :category "industrial")
(set-info :status unknown)


(declare-sort A$ 0)
(declare-sort Nat$ 0)
(declare-sort A_a_fun$ 0)
(declare-sort Nat_nat_fun$ 0)
(declare-sort Nat_bool_fun$ 0)
(declare-sort Enat_bool_fun$ 0)
(declare-sort Enat_enat_fun$ 0)
(declare-sort A_llist_enat_fun$ 0)
(declare-sort Nat_nat_nat_fun_fun$ 0)
(declare-sort Nat_nat_bool_fun_fun$ 0)
(declare-sort Enat_enat_bool_fun_fun$ 0)
(declare-sort Enat_enat_enat_fun_fun$ 0)
(declare-sort Nat_option$ 0)
(declare-sort Enat$ 0)
(declare-fun none$ () Nat_option$)
(declare-fun the$ (Nat_option$) Nat$)
(declare-fun some$ (Nat$) Nat_option$)
(declare-fun rep_enat$ (Enat$) Nat_option$)
(declare-fun abs_enat$ (Nat_option$) Enat$)
(declare-sort A_llist$ 0)
(declare-fun lNil$ () A_llist$)
(declare-fun lhd$ (A_llist$) A$)
(declare-fun ltl$ (A_llist$) A_llist$)
(declare-fun lCons$ (A$ A_llist$) A_llist$)
(declare-fun xs$ () A_llist$)
(declare-fun ys$ () A_llist$)
(declare-fun zs$ () A_llist$)
(declare-fun enat$ (Nat$) Enat$)
(declare-fun less$ (Enat$) Enat_bool_fun$)
(declare-fun llcp$ (A_llist$) A_llist_enat_fun$)
(declare-fun plus$ () Enat_enat_enat_fun_fun$)
(declare-fun size$ (Enat$) Nat$)
(declare-fun zero$ () Enat$)
(declare-fun ldrop$ (Enat$ A_llist$) A_llist$)
(declare-fun less$a (Nat$ Nat$) Bool)
(declare-fun ltake$ (Enat$ A_llist$) A_llist$)
(declare-fun minus$ (Enat$) Enat_enat_fun$)
(declare-fun plus$a () Nat_nat_nat_fun_fun$)
(declare-fun zero$a () Nat$)
(declare-fun minus$a (Nat$) Nat_nat_fun$)
(declare-fun monoid$ (Enat_enat_enat_fun_fun$) Enat_bool_fun$)
(declare-fun fun_app$ (A_llist_enat_fun$ A_llist$) Enat$)
(declare-fun lappend$ (A_llist$ A_llist$) A_llist$)
(declare-fun less_eq$ (Enat$) Enat_bool_fun$)
(declare-fun lfinite$ (A_llist$) Bool)
(declare-fun llength$ () A_llist_enat_fun$)
(declare-fun monoid$a (Nat_nat_nat_fun_fun$ Nat$) Bool)
(declare-fun fun_app$a (Enat_enat_fun$ Enat$) Enat$)
(declare-fun fun_app$b (Enat_enat_enat_fun_fun$ Enat$) Enat_enat_fun$)
(declare-fun fun_app$c (Nat_nat_fun$ Nat$) Nat$)
(declare-fun fun_app$d (Nat_nat_nat_fun_fun$ Nat$) Nat_nat_fun$)
(declare-fun fun_app$e (Enat_bool_fun$ Enat$) Bool)
(declare-fun fun_app$f (Nat_bool_fun$ Nat$) Bool)
(declare-fun fun_app$g (Nat_nat_bool_fun_fun$ Nat$) Nat_bool_fun$)
(declare-fun fun_app$h (Enat_enat_bool_fun_fun$ Enat$) Enat_bool_fun$)
(declare-fun infinity$ () Enat$)
(declare-fun iterates$ (A_a_fun$ A$) A_llist$)
(declare-fun less_eq$a (Nat$ Nat$) Bool)
(declare-fun the_enat$ (Enat$) Nat$)
(declare-fun semigroup$ (Enat_enat_enat_fun_fun$) Bool)
(declare-fun size_enat$ (Enat$) Nat$)
(declare-fun semigroup$a (Nat_nat_nat_fun_fun$) Bool)
(declare-fun gen_llength$ (Nat$) A_llist_enat_fun$)
(declare-fun monoid_axioms$ (Nat_nat_nat_fun_fun$ Nat$) Bool)
(declare-fun abel_semigroup$ (Enat_enat_enat_fun_fun$) Bool)
(declare-fun monoid_axioms$a (Enat_enat_enat_fun_fun$) Enat_bool_fun$)
(declare-fun abel_semigroup$a (Nat_nat_nat_fun_fun$) Bool)
(declare-fun abel_semigroup_axioms$ (Nat_nat_nat_fun_fun$) Bool)
(declare-fun abel_semigroup_axioms$a (Enat_enat_enat_fun_fun$) Bool)
(assert (not (= (fun_app$ (llcp$ (lappend$ xs$ ys$)) (lappend$ xs$ zs$)) (fun_app$a (fun_app$b plus$ (fun_app$ llength$ xs$)) (fun_app$ (llcp$ ys$) zs$)))))
(assert (forall ((?v0 A_llist$)) (! (= (fun_app$ (llcp$ ?v0) ?v0) (fun_app$ llength$ ?v0)) :pattern ((llcp$ ?v0)))))
(assert (forall ((?v0 A_llist$) (?v1 A_llist$)) (= (fun_app$ llength$ (lappend$ ?v0 ?v1)) (fun_app$a (fun_app$b plus$ (fun_app$ llength$ ?v0)) (fun_app$ llength$ ?v1))) ))
(assert (forall ((?v0 A_llist$) (?v1 A_llist$)) (= (fun_app$ (llcp$ ?v0) ?v1) (fun_app$ (llcp$ ?v1) ?v0)) ))
(assert (forall ((?v0 A_llist$) (?v1 A_llist$) (?v2 A_llist$)) (= (lappend$ (lappend$ ?v0 ?v1) ?v2) (lappend$ ?v0 (lappend$ ?v1 ?v2))) ))
(assert (forall ((?v0 Nat$) (?v1 Nat$) (?v2 Nat$)) (= (= (fun_app$c (fun_app$d plus$a ?v0) ?v1) (fun_app$c (fun_app$d plus$a ?v2) ?v1)) (= ?v0 ?v2)) ))
(assert (forall ((?v0 Nat$) (?v1 Nat$) (?v2 Nat$)) (= (= (fun_app$c (fun_app$d plus$a ?v0) ?v1) (fun_app$c (fun_app$d plus$a ?v0) ?v2)) (= ?v1 ?v2)) ))
(assert (forall ((?v0 Enat$) (?v1 Enat$) (?v2 Enat$)) (= (fun_app$a (fun_app$b plus$ (fun_app$a (fun_app$b plus$ ?v0) ?v1)) ?v2) (fun_app$a (fun_app$b plus$ ?v0) (fun_app$a (fun_app$b plus$ ?v1) ?v2))) ))
(assert (forall ((?v0 Nat$) (?v1 Nat$) (?v2 Nat$)) (= (fun_app$c (fun_app$d plus$a (fun_app$c (fun_app$d plus$a ?v0) ?v1)) ?v2) (fun_app$c (fun_app$d plus$a ?v0) (fun_app$c (fun_app$d plus$a ?v1) ?v2))) ))
(assert (forall ((?v0 Enat$) (?v1 Enat$) (?v2 Enat$)) (= (fun_app$a (fun_app$b plus$ (fun_app$a (fun_app$b plus$ ?v0) ?v1)) ?v2) (fun_app$a (fun_app$b plus$ ?v0) (fun_app$a (fun_app$b plus$ ?v1) ?v2))) ))
(assert (forall ((?v0 Nat$) (?v1 Nat$) (?v2 Nat$)) (= (fun_app$c (fun_app$d plus$a (fun_app$c (fun_app$d plus$a ?v0) ?v1)) ?v2) (fun_app$c (fun_app$d plus$a ?v0) (fun_app$c (fun_app$d plus$a ?v1) ?v2))) ))
(assert (forall ((?v0 Enat$) (?v1 Enat$) (?v2 Enat$)) (= (fun_app$a (fun_app$b plus$ ?v0) (fun_app$a (fun_app$b plus$ ?v1) ?v2)) (fun_app$a (fun_app$b plus$ ?v1) (fun_app$a (fun_app$b plus$ ?v0) ?v2))) ))
(assert (forall ((?v0 Nat$) (?v1 Nat$) (?v2 Nat$)) (= (fun_app$c (fun_app$d plus$a ?v0) (fun_app$c (fun_app$d plus$a ?v1) ?v2)) (fun_app$c (fun_app$d plus$a ?v1) (fun_app$c (fun_app$d plus$a ?v0) ?v2))) ))
(assert (forall ((?v0 Enat$) (?v1 Enat$)) (= (fun_app$a (fun_app$b plus$ ?v0) ?v1) (fun_app$a (fun_app$b plus$ ?v1) ?v0)) ))
(assert (forall ((?v0 Nat$) (?v1 Nat$)) (= (fun_app$c (fun_app$d plus$a ?v0) ?v1) (fun_app$c (fun_app$d plus$a ?v1) ?v0)) ))
(assert (forall ((?v0 Nat$) (?v1 Nat$) (?v2 Nat$)) (=> (= (fun_app$c (fun_app$d plus$a ?v0) ?v1) (fun_app$c (fun_app$d plus$a ?v2) ?v1)) (= ?v0 ?v2)) ))
(assert (forall ((?v0 Nat$) (?v1 Nat$) (?v2 Nat$)) (=> (= (fun_app$c (fun_app$d plus$a ?v0) ?v1) (fun_app$c (fun_app$d plus$a ?v0) ?v2)) (= ?v1 ?v2)) ))
(assert (forall ((?v0 Enat$) (?v1 Enat$) (?v2 Enat$) (?v3 Enat$)) (=> (and (= ?v0 ?v1) (= ?v2 ?v3)) (= (fun_app$a (fun_app$b plus$ ?v0) ?v2) (fun_app$a (fun_app$b plus$ ?v1) ?v3))) ))
(assert (forall ((?v0 Nat$) (?v1 Nat$) (?v2 Nat$) (?v3 Nat$)) (=> (and (= ?v0 ?v1) (= ?v2 ?v3)) (= (fun_app$c (fun_app$d plus$a ?v0) ?v2) (fun_app$c (fun_app$d plus$a ?v1) ?v3))) ))
(assert (forall ((?v0 A_llist$) (?v1 A_llist$) (?v2 A_llist$) (?v3 A_llist$)) (=> (= (fun_app$ llength$ ?v0) (fun_app$ llength$ ?v1)) (= (= (lappend$ ?v0 ?v2) (lappend$ ?v1 ?v3)) (and (= ?v0 ?v1) (=> (lfinite$ ?v0) (= ?v2 ?v3))))) ))
(assert (forall ((?v0 Enat$) (?v1 Enat$) (?v2 A_llist$)) (= (ldrop$ ?v0 (ldrop$ ?v1 ?v2)) (ldrop$ (fun_app$a (fun_app$b plus$ ?v0) ?v1) ?v2)) ))
(assert (forall ((?v0 A_a_fun$) (?v1 A$) (?v2 A_llist$)) (= (lappend$ (iterates$ ?v0 ?v1) ?v2) (iterates$ ?v0 ?v1)) ))
(assert (semigroup$ plus$))
(assert (semigroup$a plus$a))
(assert (abel_semigroup$ plus$))
(assert (abel_semigroup$a plus$a))
(assert (forall ((?v0 Enat$)) (= (fun_app$a (fun_app$b plus$ zero$) ?v0) ?v0) ))
(assert (forall ((?v0 Nat$)) (= (fun_app$c (fun_app$d plus$a zero$a) ?v0) ?v0) ))
(assert (forall ((?v0 A_llist$)) (= (ldrop$ zero$ ?v0) ?v0) ))
(assert (forall ((?v0 Enat$)) (= (fun_app$a (fun_app$b plus$ ?v0) zero$) ?v0) ))
(assert (forall ((?v0 Nat$)) (= (fun_app$c (fun_app$d plus$a ?v0) zero$a) ?v0) ))
(assert (forall ((?v0 A_llist$) (?v1 A_llist$)) (= (lfinite$ (lappend$ ?v0 ?v1)) (and (lfinite$ ?v0) (lfinite$ ?v1))) ))
(assert (forall ((?v0 Enat$)) (= (= zero$ ?v0) (= ?v0 zero$)) ))
(assert (forall ((?v0 Nat$)) (= (= zero$a ?v0) (= ?v0 zero$a)) ))
(assert (forall ((?v0 Nat_nat_nat_fun_fun$)) (= (semigroup$a ?v0) (forall ((?v1 Nat$) (?v2 Nat$) (?v3 Nat$)) (= (fun_app$c (fun_app$d ?v0 (fun_app$c (fun_app$d ?v0 ?v1) ?v2)) ?v3) (fun_app$c (fun_app$d ?v0 ?v1) (fun_app$c (fun_app$d ?v0 ?v2) ?v3))) )) ))
(assert (forall ((?v0 Enat_enat_enat_fun_fun$)) (= (semigroup$ ?v0) (forall ((?v1 Enat$) (?v2 Enat$) (?v3 Enat$)) (= (fun_app$a (fun_app$b ?v0 (fun_app$a (fun_app$b ?v0 ?v1) ?v2)) ?v3) (fun_app$a (fun_app$b ?v0 ?v1) (fun_app$a (fun_app$b ?v0 ?v2) ?v3))) )) ))
(assert (forall ((?v0 Nat_nat_nat_fun_fun$)) (=> (forall ((?v1 Nat$) (?v2 Nat$) (?v3 Nat$)) (= (fun_app$c (fun_app$d ?v0 (fun_app$c (fun_app$d ?v0 ?v1) ?v2)) ?v3) (fun_app$c (fun_app$d ?v0 ?v1) (fun_app$c (fun_app$d ?v0 ?v2) ?v3))) ) (semigroup$a ?v0)) ))
(assert (forall ((?v0 Enat_enat_enat_fun_fun$)) (=> (forall ((?v1 Enat$) (?v2 Enat$) (?v3 Enat$)) (= (fun_app$a (fun_app$b ?v0 (fun_app$a (fun_app$b ?v0 ?v1) ?v2)) ?v3) (fun_app$a (fun_app$b ?v0 ?v1) (fun_app$a (fun_app$b ?v0 ?v2) ?v3))) ) (semigroup$ ?v0)) ))
(assert (forall ((?v0 Nat_nat_nat_fun_fun$) (?v1 Nat$) (?v2 Nat$) (?v3 Nat$)) (=> (semigroup$a ?v0) (= (fun_app$c (fun_app$d ?v0 (fun_app$c (fun_app$d ?v0 ?v1) ?v2)) ?v3) (fun_app$c (fun_app$d ?v0 ?v1) (fun_app$c (fun_app$d ?v0 ?v2) ?v3)))) ))
(assert (forall ((?v0 Enat_enat_enat_fun_fun$) (?v1 Enat$) (?v2 Enat$) (?v3 Enat$)) (=> (semigroup$ ?v0) (= (fun_app$a (fun_app$b ?v0 (fun_app$a (fun_app$b ?v0 ?v1) ?v2)) ?v3) (fun_app$a (fun_app$b ?v0 ?v1) (fun_app$a (fun_app$b ?v0 ?v2) ?v3)))) ))
(assert (forall ((?v0 Nat_nat_nat_fun_fun$) (?v1 Nat$) (?v2 Nat$) (?v3 Nat$)) (=> (abel_semigroup$a ?v0) (= (fun_app$c (fun_app$d ?v0 ?v1) (fun_app$c (fun_app$d ?v0 ?v2) ?v3)) (fun_app$c (fun_app$d ?v0 ?v2) (fun_app$c (fun_app$d ?v0 ?v1) ?v3)))) ))
(assert (forall ((?v0 Enat_enat_enat_fun_fun$) (?v1 Enat$) (?v2 Enat$) (?v3 Enat$)) (=> (abel_semigroup$ ?v0) (= (fun_app$a (fun_app$b ?v0 ?v1) (fun_app$a (fun_app$b ?v0 ?v2) ?v3)) (fun_app$a (fun_app$b ?v0 ?v2) (fun_app$a (fun_app$b ?v0 ?v1) ?v3)))) ))
(assert (forall ((?v0 Nat_nat_nat_fun_fun$) (?v1 Nat$) (?v2 Nat$)) (=> (abel_semigroup$a ?v0) (= (fun_app$c (fun_app$d ?v0 ?v1) ?v2) (fun_app$c (fun_app$d ?v0 ?v2) ?v1))) ))
(assert (forall ((?v0 Enat_enat_enat_fun_fun$) (?v1 Enat$) (?v2 Enat$)) (=> (abel_semigroup$ ?v0) (= (fun_app$a (fun_app$b ?v0 ?v1) ?v2) (fun_app$a (fun_app$b ?v0 ?v2) ?v1))) ))
(assert (forall ((?v0 Nat_nat_nat_fun_fun$)) (=> (abel_semigroup$a ?v0) (semigroup$a ?v0)) ))
(assert (forall ((?v0 Enat_enat_enat_fun_fun$)) (=> (abel_semigroup$ ?v0) (semigroup$ ?v0)) ))
(assert (forall ((?v0 A_a_fun$) (?v1 A$)) (not (lfinite$ (iterates$ ?v0 ?v1))) ))
(assert (forall ((?v0 A_llist$) (?v1 A_llist$)) (! (=> (not (lfinite$ ?v0)) (= (lappend$ ?v0 ?v1) ?v0)) :pattern ((lappend$ ?v0 ?v1)))))
(assert (forall ((?v0 Enat$)) (= (fun_app$a (fun_app$b plus$ ?v0) zero$) ?v0) ))
(assert (forall ((?v0 Nat$)) (= (fun_app$c (fun_app$d plus$a ?v0) zero$a) ?v0) ))
(assert (forall ((?v0 Enat$)) (= (fun_app$a (fun_app$b plus$ zero$) ?v0) ?v0) ))
(assert (forall ((?v0 Nat$)) (= (fun_app$c (fun_app$d plus$a zero$a) ?v0) ?v0) ))
(assert (forall ((?v0 Nat$) (?v1 Nat$)) (= (= ?v0 (fun_app$c (fun_app$d plus$a ?v0) ?v1)) (= ?v1 zero$a)) ))
(assert (forall ((?v0 Nat_nat_nat_fun_fun$)) (! (= (abel_semigroup$a ?v0) (and (semigroup$a ?v0) (abel_semigroup_axioms$ ?v0))) :pattern ((abel_semigroup$a ?v0)))))
(assert (forall ((?v0 Enat_enat_enat_fun_fun$)) (! (= (abel_semigroup$ ?v0) (and (semigroup$ ?v0) (abel_semigroup_axioms$a ?v0))) :pattern ((abel_semigroup$ ?v0)))))
(assert (forall ((?v0 Nat_nat_nat_fun_fun$)) (=> (and (semigroup$a ?v0) (abel_semigroup_axioms$ ?v0)) (abel_semigroup$a ?v0)) ))
(assert (forall ((?v0 Enat_enat_enat_fun_fun$)) (=> (and (semigroup$ ?v0) (abel_semigroup_axioms$a ?v0)) (abel_semigroup$ ?v0)) ))
(assert (forall ((?v0 Enat$) (?v1 Enat$)) (= (= (fun_app$a (fun_app$b plus$ ?v0) ?v1) zero$) (and (= ?v0 zero$) (= ?v1 zero$))) ))
(assert (forall ((?v0 Nat_nat_nat_fun_fun$)) (=> (abel_semigroup$a ?v0) (abel_semigroup_axioms$ ?v0)) ))
(assert (forall ((?v0 Enat_enat_enat_fun_fun$)) (=> (abel_semigroup$ ?v0) (abel_semigroup_axioms$a ?v0)) ))
(assert (forall ((?v0 Enat$) (?v1 Enat$) (?v2 A_llist$)) (= (ltake$ (fun_app$a (fun_app$b plus$ ?v0) ?v1) ?v2) (lappend$ (ltake$ ?v0 ?v2) (ltake$ ?v1 (ldrop$ ?v0 ?v2)))) ))
(assert (= llength$ (gen_llength$ zero$a)))
(assert (fun_app$e (monoid$ plus$) zero$))
(assert (monoid$a plus$a zero$a))
(assert (forall ((?v0 A_a_fun$) (?v1 A$)) (= (fun_app$ llength$ (iterates$ ?v0 ?v1)) infinity$) ))
(assert (forall ((?v0 Enat$) (?v1 A_llist$)) (= (lfinite$ (ldrop$ ?v0 ?v1)) (or (lfinite$ ?v1) (= ?v0 infinity$))) ))
(assert (forall ((?v0 Enat$)) (=> (and (=> (= ?v0 zero$) false) (=> (not (= ?v0 zero$)) false)) false) ))
(assert (forall ((?v0 Nat_nat_nat_fun_fun$) (?v1 Nat$) (?v2 Nat$)) (=> (monoid$a ?v0 ?v1) (= (fun_app$c (fun_app$d ?v0 ?v1) ?v2) ?v2)) ))
(assert (forall ((?v0 Enat_enat_enat_fun_fun$) (?v1 Enat$) (?v2 Enat$)) (=> (fun_app$e (monoid$ ?v0) ?v1) (= (fun_app$a (fun_app$b ?v0 ?v1) ?v2) ?v2)) ))
(assert (forall ((?v0 Nat_nat_nat_fun_fun$) (?v1 Nat$) (?v2 Nat$)) (=> (monoid$a ?v0 ?v1) (= (fun_app$c (fun_app$d ?v0 ?v2) ?v1) ?v2)) ))
(assert (forall ((?v0 Enat_enat_enat_fun_fun$) (?v1 Enat$) (?v2 Enat$)) (=> (fun_app$e (monoid$ ?v0) ?v1) (= (fun_app$a (fun_app$b ?v0 ?v2) ?v1) ?v2)) ))
(assert (forall ((?v0 Enat_enat_enat_fun_fun$)) (= (abel_semigroup_axioms$a ?v0) (forall ((?v1 Enat$) (?v2 Enat$)) (= (fun_app$a (fun_app$b ?v0 ?v1) ?v2) (fun_app$a (fun_app$b ?v0 ?v2) ?v1)) )) ))
(assert (forall ((?v0 Nat_nat_nat_fun_fun$)) (= (abel_semigroup_axioms$ ?v0) (forall ((?v1 Nat$) (?v2 Nat$)) (= (fun_app$c (fun_app$d ?v0 ?v1) ?v2) (fun_app$c (fun_app$d ?v0 ?v2) ?v1)) )) ))
(assert (forall ((?v0 Enat_enat_enat_fun_fun$)) (=> (forall ((?v1 Enat$) (?v2 Enat$)) (= (fun_app$a (fun_app$b ?v0 ?v1) ?v2) (fun_app$a (fun_app$b ?v0 ?v2) ?v1)) ) (abel_semigroup_axioms$a ?v0)) ))
(assert (forall ((?v0 Nat_nat_nat_fun_fun$)) (=> (forall ((?v1 Nat$) (?v2 Nat$)) (= (fun_app$c (fun_app$d ?v0 ?v1) ?v2) (fun_app$c (fun_app$d ?v0 ?v2) ?v1)) ) (abel_semigroup_axioms$ ?v0)) ))
(assert (forall ((?v0 Enat$) (?v1 A_llist$)) (= (lappend$ (ltake$ ?v0 ?v1) (ldrop$ ?v0 ?v1)) ?v1) ))
(assert (forall ((?v0 A_llist$)) (! (=> (not (lfinite$ ?v0)) (= (fun_app$ llength$ ?v0) infinity$)) :pattern ((fun_app$ llength$ ?v0)))))
(assert (forall ((?v0 A_llist$)) (= (= (fun_app$ llength$ ?v0) infinity$) (not (lfinite$ ?v0))) ))
(assert (forall ((?v0 Enat$) (?v1 Enat$) (?v2 A_llist$)) (= (ltake$ ?v0 (ldrop$ ?v1 ?v2)) (ldrop$ ?v1 (ltake$ (fun_app$a (fun_app$b plus$ ?v0) ?v1) ?v2))) ))
(assert (forall ((?v0 Nat_nat_nat_fun_fun$) (?v1 Nat$)) (=> (monoid$a ?v0 ?v1) (semigroup$a ?v0)) ))
(assert (forall ((?v0 Enat_enat_enat_fun_fun$) (?v1 Enat$)) (=> (fun_app$e (monoid$ ?v0) ?v1) (semigroup$ ?v0)) ))
(assert (forall ((?v0 Enat$)) (! (= (fun_app$a (fun_app$b plus$ infinity$) ?v0) infinity$) :pattern ((fun_app$a (fun_app$b plus$ infinity$) ?v0)))))
(assert (forall ((?v0 Enat$)) (! (= (fun_app$a (fun_app$b plus$ ?v0) infinity$) infinity$) :pattern ((fun_app$b plus$ ?v0)))))
(assert (forall ((?v0 Nat$) (?v1 Nat$)) (= (= (fun_app$c (fun_app$d plus$a ?v0) ?v1) zero$a) (and (= ?v0 zero$a) (= ?v1 zero$a))) ))
(assert (forall ((?v0 Nat$)) (! (= (fun_app$c (fun_app$d plus$a ?v0) zero$a) ?v0) :pattern ((fun_app$d plus$a ?v0)))))
(assert (forall ((?v0 Enat$) (?v1 Enat$) (?v2 Enat$)) (= (= (fun_app$a (fun_app$b plus$ ?v0) ?v1) (fun_app$a (fun_app$b plus$ ?v0) ?v2)) (or (= ?v0 infinity$) (= ?v1 ?v2))) ))
(assert (not (= infinity$ zero$)))
(assert (forall ((?v0 Nat$) (?v1 Nat$) (?v2 Nat$)) (= (= (fun_app$c (fun_app$d plus$a ?v0) ?v1) (fun_app$c (fun_app$d plus$a ?v2) ?v1)) (= ?v0 ?v2)) ))
(assert (forall ((?v0 Nat$) (?v1 Nat$) (?v2 Nat$)) (= (= (fun_app$c (fun_app$d plus$a ?v0) ?v1) (fun_app$c (fun_app$d plus$a ?v0) ?v2)) (= ?v1 ?v2)) ))
(assert (forall ((?v0 Nat$)) (=> (and (=> (= ?v0 zero$a) false) (=> (not (= ?v0 zero$a)) false)) false) ))
(assert (forall ((?v0 Nat$) (?v1 Nat$)) (=> (= (fun_app$c (fun_app$d plus$a ?v0) ?v1) ?v0) (= ?v1 zero$a)) ))
(assert (forall ((?v0 Nat$)) (! (= (fun_app$c (fun_app$d plus$a zero$a) ?v0) ?v0) :pattern ((fun_app$c (fun_app$d plus$a zero$a) ?v0)))))
(assert (= (size_enat$ infinity$) zero$a))
(assert (= (size$ infinity$) zero$a))
(assert (forall ((?v0 Nat_nat_bool_fun_fun$) (?v1 Nat$) (?v2 Nat$)) (=> (and (forall ((?v3 Nat$) (?v4 Nat$)) (= (fun_app$f (fun_app$g ?v0 ?v3) ?v4) (fun_app$f (fun_app$g ?v0 ?v4) ?v3)) ) (and (forall ((?v3 Nat$)) (fun_app$f (fun_app$g ?v0 ?v3) zero$a) ) (forall ((?v3 Nat$) (?v4 Nat$)) (=> (fun_app$f (fun_app$g ?v0 ?v3) ?v4) (fun_app$f (fun_app$g ?v0 ?v3) (fun_app$c (fun_app$d plus$a ?v3) ?v4))) ))) (fun_app$f (fun_app$g ?v0 ?v1) ?v2)) ))
(assert (forall ((?v0 Nat_nat_nat_fun_fun$) (?v1 Nat$)) (! (= (monoid$a ?v0 ?v1) (and (semigroup$a ?v0) (monoid_axioms$ ?v0 ?v1))) :pattern ((monoid$a ?v0 ?v1)))))
(assert (forall ((?v0 Enat_enat_enat_fun_fun$) (?v1 Enat$)) (! (= (fun_app$e (monoid$ ?v0) ?v1) (and (semigroup$ ?v0) (fun_app$e (monoid_axioms$a ?v0) ?v1))) :pattern ((fun_app$e (monoid$ ?v0) ?v1)))))
(assert (forall ((?v0 Nat_nat_nat_fun_fun$) (?v1 Nat$)) (=> (and (semigroup$a ?v0) (monoid_axioms$ ?v0 ?v1)) (monoid$a ?v0 ?v1)) ))
(assert (forall ((?v0 Enat_enat_enat_fun_fun$) (?v1 Enat$)) (=> (and (semigroup$ ?v0) (fun_app$e (monoid_axioms$a ?v0) ?v1)) (fun_app$e (monoid$ ?v0) ?v1)) ))
(assert (forall ((?v0 Enat_enat_enat_fun_fun$) (?v1 Enat$)) (=> (and (forall ((?v2 Enat$)) (= (fun_app$a (fun_app$b ?v0 ?v1) ?v2) ?v2) ) (forall ((?v2 Enat$)) (= (fun_app$a (fun_app$b ?v0 ?v2) ?v1) ?v2) )) (fun_app$e (monoid_axioms$a ?v0) ?v1)) ))
(assert (forall ((?v0 Nat_nat_nat_fun_fun$) (?v1 Nat$)) (=> (and (forall ((?v2 Nat$)) (= (fun_app$c (fun_app$d ?v0 ?v1) ?v2) ?v2) ) (forall ((?v2 Nat$)) (= (fun_app$c (fun_app$d ?v0 ?v2) ?v1) ?v2) )) (monoid_axioms$ ?v0 ?v1)) ))
(assert (forall ((?v0 Enat_enat_enat_fun_fun$) (?v1 Enat$)) (= (fun_app$e (monoid_axioms$a ?v0) ?v1) (and (forall ((?v2 Enat$)) (= (fun_app$a (fun_app$b ?v0 ?v1) ?v2) ?v2) ) (forall ((?v2 Enat$)) (= (fun_app$a (fun_app$b ?v0 ?v2) ?v1) ?v2) ))) ))
(assert (forall ((?v0 Nat_nat_nat_fun_fun$) (?v1 Nat$)) (= (monoid_axioms$ ?v0 ?v1) (and (forall ((?v2 Nat$)) (= (fun_app$c (fun_app$d ?v0 ?v1) ?v2) ?v2) ) (forall ((?v2 Nat$)) (= (fun_app$c (fun_app$d ?v0 ?v2) ?v1) ?v2) ))) ))
(assert (forall ((?v0 Nat_nat_nat_fun_fun$) (?v1 Nat$)) (=> (monoid$a ?v0 ?v1) (monoid_axioms$ ?v0 ?v1)) ))
(assert (forall ((?v0 Enat_enat_enat_fun_fun$) (?v1 Enat$)) (=> (fun_app$e (monoid$ ?v0) ?v1) (fun_app$e (monoid_axioms$a ?v0) ?v1)) ))
(assert (= (the_enat$ zero$) zero$a))
(assert (forall ((?v0 Enat$) (?v1 A_llist$)) (= (fun_app$ llength$ (ldrop$ ?v0 ?v1)) (ite (= ?v0 infinity$) zero$ (fun_app$a (minus$ (fun_app$ llength$ ?v1)) ?v0))) ))
(assert (forall ((?v0 Enat$) (?v1 A_llist$)) (= (lfinite$ (ltake$ ?v0 ?v1)) (or (lfinite$ ?v1) (fun_app$e (less$ ?v0) infinity$))) ))
(assert (forall ((?v0 Nat$) (?v1 A_llist$)) (! (= (fun_app$ (gen_llength$ ?v0) ?v1) (fun_app$a (fun_app$b plus$ (enat$ ?v0)) (fun_app$ llength$ ?v1))) :pattern ((fun_app$ (gen_llength$ ?v0) ?v1)))))
(assert (forall ((?v0 Enat$) (?v1 A_llist$) (?v2 A_llist$)) (=> (fun_app$e (less_eq$ ?v0) (fun_app$ llength$ ?v1)) (= (ltake$ ?v0 (lappend$ ?v1 ?v2)) (ltake$ ?v0 ?v1))) ))
(assert (forall ((?v0 Enat$) (?v1 Enat$)) (=> (not (= (size$ ?v0) (size$ ?v1))) (not (= ?v0 ?v1))) ))
(assert (forall ((?v0 Nat$) (?v1 Nat$)) (= (= (enat$ ?v0) (enat$ ?v1)) (= ?v0 ?v1)) ))
(assert (forall ((?v0 Nat$) (?v1 Nat$) (?v2 Nat$)) (= (less_eq$a (fun_app$c (fun_app$d plus$a ?v0) ?v1) (fun_app$c (fun_app$d plus$a ?v2) ?v1)) (less_eq$a ?v0 ?v2)) ))
(assert (forall ((?v0 Nat$) (?v1 Nat$) (?v2 Nat$)) (= (less_eq$a (fun_app$c (fun_app$d plus$a ?v0) ?v1) (fun_app$c (fun_app$d plus$a ?v0) ?v2)) (less_eq$a ?v1 ?v2)) ))
(assert (forall ((?v0 Nat$) (?v1 Nat$) (?v2 Nat$)) (= (less$a (fun_app$c (fun_app$d plus$a ?v0) ?v1) (fun_app$c (fun_app$d plus$a ?v2) ?v1)) (less$a ?v0 ?v2)) ))
(assert (forall ((?v0 Nat$) (?v1 Nat$) (?v2 Nat$)) (= (less$a (fun_app$c (fun_app$d plus$a ?v0) ?v1) (fun_app$c (fun_app$d plus$a ?v0) ?v2)) (less$a ?v1 ?v2)) ))
(assert (forall ((?v0 Nat$)) (= (fun_app$c (minus$a ?v0) zero$a) ?v0) ))
(assert (forall ((?v0 Nat$)) (! (= (fun_app$c (minus$a ?v0) ?v0) zero$a) :pattern ((minus$a ?v0)))))
(assert (forall ((?v0 Nat$)) (= (fun_app$c (minus$a zero$a) ?v0) zero$a) ))
(assert (forall ((?v0 Nat$) (?v1 Nat$) (?v2 Nat$)) (= (fun_app$c (minus$a (fun_app$c (fun_app$d plus$a ?v0) ?v1)) (fun_app$c (fun_app$d plus$a ?v2) ?v1)) (fun_app$c (minus$a ?v0) ?v2)) ))
(assert (forall ((?v0 Nat$) (?v1 Nat$) (?v2 Nat$)) (= (fun_app$c (minus$a (fun_app$c (fun_app$d plus$a ?v0) ?v1)) (fun_app$c (fun_app$d plus$a ?v0) ?v2)) (fun_app$c (minus$a ?v1) ?v2)) ))
(assert (forall ((?v0 Nat$) (?v1 Nat$)) (= (fun_app$c (minus$a (fun_app$c (fun_app$d plus$a ?v0) ?v1)) ?v1) ?v0) ))
(assert (forall ((?v0 Nat$) (?v1 Nat$)) (= (fun_app$c (minus$a (fun_app$c (fun_app$d plus$a ?v0) ?v1)) ?v0) ?v1) ))
(assert (forall ((?v0 Enat$)) (= (fun_app$e (less_eq$ ?v0) zero$) (= ?v0 zero$)) ))
(assert (forall ((?v0 Enat$)) (= (not (= ?v0 infinity$)) (exists ((?v1 Nat$)) (= ?v0 (enat$ ?v1)) )) ))
(assert (forall ((?v0 Enat$)) (= (forall ((?v1 Nat$)) (not (= ?v0 (enat$ ?v1))) ) (= ?v0 infinity$)) ))
(assert (forall ((?v0 Enat$)) (! (= (fun_app$e (less_eq$ ?v0) infinity$) true) :pattern ((less_eq$ ?v0)))))
(assert (forall ((?v0 Enat$)) (! (= (fun_app$e (less_eq$ infinity$) ?v0) (= ?v0 infinity$)) :pattern ((fun_app$e (less_eq$ infinity$) ?v0)))))
(assert (forall ((?v0 Nat$) (?v1 Enat$) (?v2 Enat$)) (= (= (fun_app$a (fun_app$b plus$ (enat$ ?v0)) ?v1) (fun_app$a (fun_app$b plus$ (enat$ ?v0)) ?v2)) (= ?v1 ?v2)) ))
(assert (forall ((?v0 Enat$) (?v1 Nat$) (?v2 Enat$)) (= (= (fun_app$a (fun_app$b plus$ ?v0) (enat$ ?v1)) (fun_app$a (fun_app$b plus$ ?v2) (enat$ ?v1))) (= ?v0 ?v2)) ))
(assert (forall ((?v0 Enat$)) (= (fun_app$e (less$ zero$) ?v0) (not (= ?v0 zero$))) ))
(assert (forall ((?v0 Enat$)) (! (= (fun_app$e (less$ infinity$) ?v0) false) :pattern ((fun_app$e (less$ infinity$) ?v0)))))
(assert (forall ((?v0 Enat$)) (! (= (fun_app$e (less$ ?v0) infinity$) (not (= ?v0 infinity$))) :pattern ((less$ ?v0)))))
(assert (forall ((?v0 Enat$)) (= (fun_app$a (minus$ zero$) ?v0) zero$) ))
(assert (forall ((?v0 Enat$)) (= (fun_app$a (minus$ ?v0) zero$) ?v0) ))
(assert (forall ((?v0 Enat$)) (! (= (fun_app$a (minus$ infinity$) ?v0) infinity$) :pattern ((fun_app$a (minus$ infinity$) ?v0)))))
(assert (forall ((?v0 Nat$) (?v1 Nat$)) (= (fun_app$c (minus$a ?v0) (fun_app$c (fun_app$d plus$a ?v0) ?v1)) zero$a) ))
(assert (forall ((?v0 Nat$) (?v1 Nat$)) (! (= (fun_app$a (fun_app$b plus$ (enat$ ?v0)) (enat$ ?v1)) (enat$ (fun_app$c (fun_app$d plus$a ?v0) ?v1))) :pattern ((fun_app$a (fun_app$b plus$ (enat$ ?v0)) (enat$ ?v1))))))
(assert (forall ((?v0 Enat$)) (! (= (fun_app$a (minus$ (enat$ zero$a)) ?v0) (enat$ zero$a)) :pattern ((fun_app$a (minus$ (enat$ zero$a)) ?v0)))))
(assert (forall ((?v0 Enat$)) (! (= (fun_app$a (minus$ ?v0) (enat$ zero$a)) ?v0) :pattern ((minus$ ?v0)))))
(assert (forall ((?v0 Enat$)) (! (=> (not (= ?v0 infinity$)) (= (fun_app$a (minus$ ?v0) ?v0) zero$)) :pattern ((minus$ ?v0)))))
(assert (forall ((?v0 Nat$) (?v1 Enat$) (?v2 Enat$)) (= (fun_app$e (less$ (fun_app$a (fun_app$b plus$ (enat$ ?v0)) ?v1)) (fun_app$a (fun_app$b plus$ (enat$ ?v0)) ?v2)) (fun_app$e (less$ ?v1) ?v2)) ))
(assert (forall ((?v0 Nat$)) (! (= (size$ (enat$ ?v0)) zero$a) :pattern ((enat$ ?v0)))))
(assert (forall ((?v0 Nat$)) (! (= (size_enat$ (enat$ ?v0)) zero$a) :pattern ((enat$ ?v0)))))
(assert (forall ((?v0 Nat$)) (! (= (fun_app$a (minus$ (enat$ ?v0)) infinity$) zero$) :pattern ((enat$ ?v0)))))
(assert (forall ((?v0 Nat$) (?v1 Nat$)) (=> (and (less_eq$a zero$a ?v0) (less$a zero$a ?v1)) (less$a zero$a (fun_app$c (fun_app$d plus$a ?v0) ?v1))) ))
(assert (forall ((?v0 Nat$) (?v1 Nat$) (?v2 Nat$)) (=> (and (less_eq$a zero$a ?v0) (less$a ?v1 ?v2)) (less$a ?v1 (fun_app$c (fun_app$d plus$a ?v0) ?v2))) ))
(assert (forall ((?v0 Nat$) (?v1 Nat$)) (=> (and (less_eq$a ?v0 zero$a) (less$a ?v1 zero$a)) (less$a (fun_app$c (fun_app$d plus$a ?v0) ?v1) zero$a)) ))
(assert (forall ((?v0 Nat$) (?v1 Nat$)) (=> (and (less$a zero$a ?v0) (less_eq$a zero$a ?v1)) (less$a zero$a (fun_app$c (fun_app$d plus$a ?v0) ?v1))) ))
(assert (forall ((?v0 Nat$) (?v1 Nat$) (?v2 Nat$)) (=> (and (less$a zero$a ?v0) (less_eq$a ?v1 ?v2)) (less$a ?v1 (fun_app$c (fun_app$d plus$a ?v0) ?v2))) ))
(assert (forall ((?v0 Nat$) (?v1 Nat$)) (=> (and (less$a ?v0 zero$a) (less_eq$a ?v1 zero$a)) (less$a (fun_app$c (fun_app$d plus$a ?v0) ?v1) zero$a)) ))
(assert (forall ((?v0 Nat$) (?v1 Enat$) (?v2 Nat$)) (=> (fun_app$e (less$ (enat$ ?v0)) ?v1) (fun_app$e (less$ (enat$ (fun_app$c (fun_app$d plus$a ?v2) ?v0))) (fun_app$a (fun_app$b plus$ (enat$ ?v2)) ?v1))) ))
(assert (forall ((?v0 Enat$) (?v1 Enat$)) (=> (forall ((?v2 Nat$)) (=> (fun_app$e (less$ ?v0) (enat$ ?v2)) (fun_app$e (less$ ?v1) (enat$ ?v2))) ) (fun_app$e (less_eq$ ?v1) ?v0)) ))
(assert (forall ((?v0 Enat$) (?v1 Enat$) (?v2 Enat$)) (=> (and (fun_app$e (less_eq$ ?v0) ?v1) (fun_app$e (less_eq$ ?v0) ?v2)) (= (= (fun_app$a (minus$ ?v1) ?v0) (fun_app$a (minus$ ?v2) ?v0)) (= ?v1 ?v2))) ))
(assert (forall ((?v0 Enat$) (?v1 Enat$) (?v2 Enat$)) (=> (fun_app$e (less_eq$ ?v0) ?v1) (fun_app$e (less_eq$ (fun_app$a (minus$ ?v0) ?v2)) (fun_app$a (minus$ ?v1) ?v2))) ))
(assert (forall ((?v0 Enat$)) (=> (not (= ?v0 infinity$)) (= (enat$ (the_enat$ ?v0)) ?v0)) ))
(assert (forall ((?v0 Nat$) (?v1 Nat$) (?v2 Nat$)) (= (fun_app$c (minus$a (fun_app$c (minus$a ?v0) ?v1)) ?v2) (fun_app$c (minus$a (fun_app$c (minus$a ?v0) ?v2)) ?v1)) ))
(assert (forall ((?v0 Nat_nat_bool_fun_fun$) (?v1 Nat$) (?v2 Nat$)) (=> (and (forall ((?v3 Nat$) (?v4 Nat$)) (=> (less_eq$a ?v3 ?v4) (fun_app$f (fun_app$g ?v0 ?v3) ?v4)) ) (=> (fun_app$f (fun_app$g ?v0 ?v1) ?v2) (fun_app$f (fun_app$g ?v0 ?v2) ?v1))) (fun_app$f (fun_app$g ?v0 ?v2) ?v1)) ))
(assert (forall ((?v0 Enat_enat_bool_fun_fun$) (?v1 Enat$) (?v2 Enat$)) (=> (and (forall ((?v3 Enat$) (?v4 Enat$)) (=> (fun_app$e (less_eq$ ?v3) ?v4) (fun_app$e (fun_app$h ?v0 ?v3) ?v4)) ) (=> (fun_app$e (fun_app$h ?v0 ?v1) ?v2) (fun_app$e (fun_app$h ?v0 ?v2) ?v1))) (fun_app$e (fun_app$h ?v0 ?v2) ?v1)) ))
(assert (forall ((?v0 Nat$) (?v1 Nat$) (?v2 Nat$)) (=> (less_eq$a ?v0 ?v1) (less_eq$a ?v2 (fun_app$c (minus$a (fun_app$c (fun_app$d plus$a ?v1) ?v2)) ?v0))) ))
(assert (forall ((?v0 Nat$) (?v1 Nat$) (?v2 Nat$)) (=> (less_eq$a ?v0 ?v1) (= (less_eq$a ?v2 (fun_app$c (minus$a ?v1) ?v0)) (less_eq$a (fun_app$c (fun_app$d plus$a ?v2) ?v0) ?v1))) ))
(assert (forall ((?v0 Nat$) (?v1 Nat$) (?v2 Nat$)) (=> (less_eq$a ?v0 ?v1) (= (fun_app$c (minus$a ?v2) (fun_app$c (minus$a ?v1) ?v0)) (fun_app$c (minus$a (fun_app$c (fun_app$d plus$a ?v2) ?v0)) ?v1))) ))
(assert (forall ((?v0 Nat$) (?v1 Nat$) (?v2 Nat$)) (=> (less_eq$a ?v0 ?v1) (= (fun_app$c (minus$a (fun_app$c (fun_app$d plus$a ?v2) ?v1)) ?v0) (fun_app$c (fun_app$d plus$a ?v2) (fun_app$c (minus$a ?v1) ?v0)))) ))
(assert (forall ((?v0 Nat$) (?v1 Nat$) (?v2 Nat$)) (=> (less_eq$a ?v0 ?v1) (= (fun_app$c (minus$a (fun_app$c (fun_app$d plus$a ?v1) ?v2)) ?v0) (fun_app$c (fun_app$d plus$a (fun_app$c (minus$a ?v1) ?v0)) ?v2))) ))
(assert (forall ((?v0 Nat$) (?v1 Nat$)) (=> (less_eq$a ?v0 ?v1) (= (fun_app$c (fun_app$d plus$a ?v0) (fun_app$c (minus$a ?v1) ?v0)) ?v1)) ))
(assert (forall ((?v0 Nat$) (?v1 Nat$) (?v2 Nat$)) (=> (less_eq$a ?v0 ?v1) (= (fun_app$c (fun_app$d plus$a ?v2) (fun_app$c (minus$a ?v1) ?v0)) (fun_app$c (minus$a (fun_app$c (fun_app$d plus$a ?v2) ?v1)) ?v0))) ))
(assert (forall ((?v0 Nat$) (?v1 Nat$)) (=> (less_eq$a ?v0 ?v1) (= (fun_app$c (fun_app$d plus$a (fun_app$c (minus$a ?v1) ?v0)) ?v0) ?v1)) ))
(assert (forall ((?v0 Nat$) (?v1 Nat$) (?v2 Nat$)) (=> (less_eq$a ?v0 ?v1) (= (fun_app$c (fun_app$d plus$a (fun_app$c (minus$a ?v1) ?v0)) ?v2) (fun_app$c (minus$a (fun_app$c (fun_app$d plus$a ?v1) ?v2)) ?v0))) ))
(assert (forall ((?v0 Nat$) (?v1 Nat$) (?v2 Nat$)) (=> (and (less_eq$a ?v0 ?v1) (less_eq$a ?v0 ?v1)) (= (= (fun_app$c (minus$a ?v1) ?v0) ?v2) (= ?v1 (fun_app$c (fun_app$d plus$a ?v2) ?v0)))) ))
(assert (forall ((?v0 Nat$) (?v1 Nat$) (?v2 Nat$) (?v3 Nat$)) (=> (and (less_eq$a ?v0 ?v1) (less$a ?v2 ?v3)) (less$a (fun_app$c (fun_app$d plus$a ?v0) ?v2) (fun_app$c (fun_app$d plus$a ?v1) ?v3))) ))
(assert (forall ((?v0 Nat$) (?v1 Nat$) (?v2 Nat$) (?v3 Nat$)) (=> (and (less$a ?v0 ?v1) (less_eq$a ?v2 ?v3)) (less$a (fun_app$c (fun_app$d plus$a ?v0) ?v2) (fun_app$c (fun_app$d plus$a ?v1) ?v3))) ))
(assert (forall ((?v0 Nat$) (?v1 Nat$) (?v2 Nat$) (?v3 Nat$)) (=> (and (less_eq$a ?v0 ?v1) (less$a ?v2 ?v3)) (less$a (fun_app$c (fun_app$d plus$a ?v0) ?v2) (fun_app$c (fun_app$d plus$a ?v1) ?v3))) ))
(assert (forall ((?v0 Nat$) (?v1 Nat$) (?v2 Nat$) (?v3 Nat$)) (=> (and (less$a ?v0 ?v1) (less_eq$a ?v2 ?v3)) (less$a (fun_app$c (fun_app$d plus$a ?v0) ?v2) (fun_app$c (fun_app$d plus$a ?v1) ?v3))) ))
(assert (forall ((?v0 Nat$)) (! (= (the_enat$ (enat$ ?v0)) ?v0) :pattern ((enat$ ?v0)))))
(assert (forall ((?v0 Enat_bool_fun$) (?v1 Enat$)) (=> (forall ((?v2 Enat$)) (=> (forall ((?v3 Enat$)) (=> (fun_app$e (less$ ?v3) ?v2) (fun_app$e ?v0 ?v3)) ) (fun_app$e ?v0 ?v2)) ) (fun_app$e ?v0 ?v1)) ))
(assert (forall ((?v0 Enat$) (?v1 Nat$)) (=> (fun_app$e (less$ ?v0) (enat$ ?v1)) (exists ((?v2 Nat$)) (= ?v0 (enat$ ?v2)) )) ))
(assert (forall ((?v0 Enat$) (?v1 Nat$)) (=> (fun_app$e (less_eq$ ?v0) (enat$ ?v1)) (exists ((?v2 Nat$)) (= ?v0 (enat$ ?v2)) )) ))
(assert (forall ((?v0 Nat$)) (=> (fun_app$e (less_eq$ infinity$) (enat$ ?v0)) false) ))
(assert (forall ((?v0 Nat$)) (=> (fun_app$e (less$ infinity$) (enat$ ?v0)) false) ))
(assert (forall ((?v0 Enat$)) (=> (and (fun_app$e (less$ ?v0) infinity$) (forall ((?v1 Nat$)) (=> (= ?v0 (enat$ ?v1)) false) )) false) ))
(assert (forall ((?v0 Nat$)) (! (= (fun_app$e (less_eq$ infinity$) (enat$ ?v0)) false) :pattern ((enat$ ?v0)))))
(assert (forall ((?v0 Nat$)) (! (= (fun_app$e (less$ (enat$ ?v0)) infinity$) true) :pattern ((enat$ ?v0)))))
(assert (forall ((?v0 Nat$) (?v1 Nat$) (?v2 Nat$)) (= (fun_app$c (minus$a (fun_app$c (minus$a ?v0) ?v1)) ?v2) (fun_app$c (minus$a ?v0) (fun_app$c (fun_app$d plus$a ?v1) ?v2))) ))
(assert (forall ((?v0 Nat$) (?v1 Nat$) (?v2 Nat$)) (=> (= (fun_app$c (fun_app$d plus$a ?v0) ?v1) ?v2) (= ?v0 (fun_app$c (minus$a ?v2) ?v1))) ))
(assert (not (less$a zero$a zero$a)))
(assert (less_eq$a zero$a zero$a))
(assert (forall ((?v0 Nat$) (?v1 Nat$) (?v2 Nat$) (?v3 Nat$)) (=> (and (= ?v0 ?v1) (less$a ?v2 ?v3)) (less$a (fun_app$c (fun_app$d plus$a ?v0) ?v2) (fun_app$c (fun_app$d plus$a ?v1) ?v3))) ))
(assert (forall ((?v0 Nat$) (?v1 Nat$) (?v2 Nat$) (?v3 Nat$)) (=> (and (less$a ?v0 ?v1) (= ?v2 ?v3)) (less$a (fun_app$c (fun_app$d plus$a ?v0) ?v2) (fun_app$c (fun_app$d plus$a ?v1) ?v3))) ))
(assert (forall ((?v0 Nat$) (?v1 Nat$) (?v2 Nat$) (?v3 Nat$)) (=> (and (less$a ?v0 ?v1) (less$a ?v2 ?v3)) (less$a (fun_app$c (fun_app$d plus$a ?v0) ?v2) (fun_app$c (fun_app$d plus$a ?v1) ?v3))) ))
(assert (forall ((?v0 Nat$) (?v1 Nat$) (?v2 Nat$)) (=> (less$a (fun_app$c (fun_app$d plus$a ?v0) ?v1) (fun_app$c (fun_app$d plus$a ?v2) ?v1)) (less$a ?v0 ?v2)) ))
(assert (forall ((?v0 Nat$) (?v1 Nat$) (?v2 Nat$)) (=> (less$a (fun_app$c (fun_app$d plus$a ?v0) ?v1) (fun_app$c (fun_app$d plus$a ?v0) ?v2)) (less$a ?v1 ?v2)) ))
(assert (forall ((?v0 Nat$) (?v1 Nat$) (?v2 Nat$) (?v3 Nat$)) (=> (and (less$a ?v0 ?v1) (less$a ?v2 ?v3)) (less$a (fun_app$c (fun_app$d plus$a ?v0) ?v2) (fun_app$c (fun_app$d plus$a ?v1) ?v3))) ))
(assert (forall ((?v0 Nat$) (?v1 Nat$) (?v2 Nat$)) (=> (less$a ?v0 ?v1) (less$a (fun_app$c (fun_app$d plus$a ?v0) ?v2) (fun_app$c (fun_app$d plus$a ?v1) ?v2))) ))
(assert (forall ((?v0 Nat$) (?v1 Nat$) (?v2 Nat$)) (=> (less$a ?v0 ?v1) (less$a (fun_app$c (fun_app$d plus$a ?v2) ?v0) (fun_app$c (fun_app$d plus$a ?v2) ?v1))) ))
(assert (forall ((?v0 Enat$)) (=> (and (forall ((?v1 Nat$)) (=> (= ?v0 (enat$ ?v1)) false) ) (=> (= ?v0 infinity$) false)) false) ))
(assert (forall ((?v0 Enat$) (?v1 Enat$)) (=> (and (forall ((?v2 Nat$) (?v3 Nat$)) (=> (and (= ?v0 (enat$ ?v2)) (= ?v1 (enat$ ?v3))) false) ) (and (forall ((?v2 Nat$)) (=> (and (= ?v0 (enat$ ?v2)) (= ?v1 infinity$)) false) ) (and (forall ((?v2 Nat$)) (=> (and (= ?v0 infinity$) (= ?v1 (enat$ ?v2))) false) ) (=> (and (= ?v0 infinity$) (= ?v1 infinity$)) false)))) false) ))
(assert (forall ((?v0 Enat$) (?v1 Enat$) (?v2 Enat$)) (=> (and (forall ((?v3 Nat$) (?v4 Nat$) (?v5 Nat$)) (=> (and (= ?v0 (enat$ ?v3)) (and (= ?v1 (enat$ ?v4)) (= ?v2 (enat$ ?v5)))) false) ) (and (forall ((?v3 Nat$) (?v4 Nat$)) (=> (and (= ?v0 (enat$ ?v3)) (and (= ?v1 (enat$ ?v4)) (= ?v2 infinity$))) false) ) (and (forall ((?v3 Nat$) (?v4 Nat$)) (=> (and (= ?v0 (enat$ ?v3)) (and (= ?v1 infinity$) (= ?v2 (enat$ ?v4)))) false) ) (and (forall ((?v3 Nat$)) (=> (and (= ?v0 (enat$ ?v3)) (and (= ?v1 infinity$) (= ?v2 infinity$))) false) ) (and (forall ((?v3 Nat$) (?v4 Nat$)) (=> (and (= ?v0 infinity$) (and (= ?v1 (enat$ ?v3)) (= ?v2 (enat$ ?v4)))) false) ) (and (forall ((?v3 Nat$)) (=> (and (= ?v0 infinity$) (and (= ?v1 (enat$ ?v3)) (= ?v2 infinity$))) false) ) (and (forall ((?v3 Nat$)) (=> (and (= ?v0 infinity$) (and (= ?v1 infinity$) (= ?v2 (enat$ ?v3)))) false) ) (=> (and (= ?v0 infinity$) (and (= ?v1 infinity$) (= ?v2 infinity$))) false)))))))) false) ))
(assert (forall ((?v0 Nat$)) (not (= (enat$ ?v0) infinity$)) ))
(assert (forall ((?v0 Nat$)) (not (= infinity$ (enat$ ?v0))) ))
(assert (forall ((?v0 Nat$) (?v1 Nat$)) (= (less_eq$a ?v0 ?v1) (exists ((?v2 Nat$)) (= ?v1 (fun_app$c (fun_app$d plus$a ?v0) ?v2)) )) ))
(assert (forall ((?v0 Nat$) (?v1 Nat$) (?v2 Nat$) (?v3 Nat$)) (=> (and (= ?v0 ?v1) (less_eq$a ?v2 ?v3)) (less_eq$a (fun_app$c (fun_app$d plus$a ?v0) ?v2) (fun_app$c (fun_app$d plus$a ?v1) ?v3))) ))
(assert (forall ((?v0 Enat$) (?v1 Enat$) (?v2 Enat$) (?v3 Enat$)) (=> (and (= ?v0 ?v1) (fun_app$e (less_eq$ ?v2) ?v3)) (fun_app$e (less_eq$ (fun_app$a (fun_app$b plus$ ?v0) ?v2)) (fun_app$a (fun_app$b plus$ ?v1) ?v3))) ))
(assert (forall ((?v0 Nat$) (?v1 Nat$) (?v2 Nat$) (?v3 Nat$)) (=> (and (less_eq$a ?v0 ?v1) (= ?v2 ?v3)) (less_eq$a (fun_app$c (fun_app$d plus$a ?v0) ?v2) (fun_app$c (fun_app$d plus$a ?v1) ?v3))) ))
(assert (forall ((?v0 Enat$) (?v1 Enat$) (?v2 Enat$) (?v3 Enat$)) (=> (and (fun_app$e (less_eq$ ?v0) ?v1) (= ?v2 ?v3)) (fun_app$e (less_eq$ (fun_app$a (fun_app$b plus$ ?v0) ?v2)) (fun_app$a (fun_app$b plus$ ?v1) ?v3))) ))
(assert (forall ((?v0 Nat$) (?v1 Nat$) (?v2 Nat$) (?v3 Nat$)) (=> (and (less_eq$a ?v0 ?v1) (less_eq$a ?v2 ?v3)) (less_eq$a (fun_app$c (fun_app$d plus$a ?v0) ?v2) (fun_app$c (fun_app$d plus$a ?v1) ?v3))) ))
(assert (forall ((?v0 Enat$) (?v1 Enat$) (?v2 Enat$) (?v3 Enat$)) (=> (and (fun_app$e (less_eq$ ?v0) ?v1) (fun_app$e (less_eq$ ?v2) ?v3)) (fun_app$e (less_eq$ (fun_app$a (fun_app$b plus$ ?v0) ?v2)) (fun_app$a (fun_app$b plus$ ?v1) ?v3))) ))
(assert (forall ((?v0 Nat$) (?v1 Nat$) (?v2 Nat$)) (=> (less_eq$a (fun_app$c (fun_app$d plus$a ?v0) ?v1) (fun_app$c (fun_app$d plus$a ?v2) ?v1)) (less_eq$a ?v0 ?v2)) ))
(assert (forall ((?v0 Nat$) (?v1 Nat$) (?v2 Nat$)) (=> (less_eq$a (fun_app$c (fun_app$d plus$a ?v0) ?v1) (fun_app$c (fun_app$d plus$a ?v0) ?v2)) (less_eq$a ?v1 ?v2)) ))
(assert (forall ((?v0 Nat$) (?v1 Nat$) (?v2 Nat$) (?v3 Nat$)) (=> (and (less_eq$a ?v0 ?v1) (less_eq$a ?v2 ?v3)) (less_eq$a (fun_app$c (fun_app$d plus$a ?v0) ?v2) (fun_app$c (fun_app$d plus$a ?v1) ?v3))) ))
(assert (forall ((?v0 Enat$) (?v1 Enat$) (?v2 Enat$) (?v3 Enat$)) (=> (and (fun_app$e (less_eq$ ?v0) ?v1) (fun_app$e (less_eq$ ?v2) ?v3)) (fun_app$e (less_eq$ (fun_app$a (fun_app$b plus$ ?v0) ?v2)) (fun_app$a (fun_app$b plus$ ?v1) ?v3))) ))
(assert (forall ((?v0 Nat$) (?v1 Nat$) (?v2 Nat$)) (=> (less_eq$a ?v0 ?v1) (less_eq$a (fun_app$c (fun_app$d plus$a ?v0) ?v2) (fun_app$c (fun_app$d plus$a ?v1) ?v2))) ))
(assert (forall ((?v0 Enat$) (?v1 Enat$) (?v2 Enat$)) (=> (fun_app$e (less_eq$ ?v0) ?v1) (fun_app$e (less_eq$ (fun_app$a (fun_app$b plus$ ?v0) ?v2)) (fun_app$a (fun_app$b plus$ ?v1) ?v2))) ))
(assert (forall ((?v0 Nat$) (?v1 Nat$) (?v2 Nat$)) (=> (less_eq$a ?v0 ?v1) (less_eq$a (fun_app$c (fun_app$d plus$a ?v2) ?v0) (fun_app$c (fun_app$d plus$a ?v2) ?v1))) ))
(assert (forall ((?v0 Enat$) (?v1 Enat$) (?v2 Enat$)) (=> (fun_app$e (less_eq$ ?v0) ?v1) (fun_app$e (less_eq$ (fun_app$a (fun_app$b plus$ ?v2) ?v0)) (fun_app$a (fun_app$b plus$ ?v2) ?v1))) ))
(assert (forall ((?v0 A_llist$) (?v1 A_llist$)) (=> (forall ((?v2 Nat$)) (= (ltake$ (enat$ ?v2) ?v0) (ltake$ (enat$ ?v2) ?v1)) ) (= ?v0 ?v1)) ))
(assert (forall ((?v0 Enat$)) (not (fun_app$e (less$ ?v0) zero$)) ))
(assert (forall ((?v0 Enat$)) (fun_app$e (less_eq$ zero$) ?v0) ))
(assert (forall ((?v0 Enat$)) (fun_app$e (less_eq$ ?v0) infinity$) ))
(assert (forall ((?v0 Enat$) (?v1 A_llist$) (?v2 A_llist$) (?v3 Enat$)) (=> (and (= (ltake$ ?v0 ?v1) (ltake$ ?v0 ?v2)) (fun_app$e (less_eq$ ?v3) ?v0)) (= (ltake$ ?v3 ?v1) (ltake$ ?v3 ?v2))) ))
(assert (forall ((?v0 Enat$) (?v1 Enat$)) (fun_app$e (less_eq$ ?v0) (fun_app$a (fun_app$b plus$ ?v0) ?v1)) ))
(assert (forall ((?v0 Enat$) (?v1 Enat$)) (fun_app$e (less_eq$ ?v0) (fun_app$a (fun_app$b plus$ ?v1) ?v0)) ))
(assert (forall ((?v0 A_llist$) (?v1 Enat$) (?v2 A_llist$)) (=> (fun_app$e (less_eq$ (fun_app$ llength$ ?v0)) ?v1) (= (ltake$ ?v1 (lappend$ ?v0 ?v2)) (lappend$ ?v0 (ltake$ (fun_app$a (minus$ ?v1) (fun_app$ llength$ ?v0)) ?v2)))) ))
(assert (forall ((?v0 Enat$) (?v1 A_llist$) (?v2 A_llist$)) (= (ldrop$ ?v0 (lappend$ ?v1 ?v2)) (ite (fun_app$e (less$ ?v0) (fun_app$ llength$ ?v1)) (lappend$ (ldrop$ ?v0 ?v1) ?v2) (ldrop$ (fun_app$a (minus$ ?v0) (fun_app$ llength$ ?v1)) ?v2))) ))
(assert (forall ((?v0 Nat$)) (= (= (enat$ ?v0) zero$) (= ?v0 zero$a)) ))
(assert (forall ((?v0 Nat$)) (= (= zero$ (enat$ ?v0)) (= ?v0 zero$a)) ))
(assert (= zero$ (enat$ zero$a)))
(check-sat)
(exit)

